p cnf 7230 17
-1864 -3144 3661 0
-3216 -3224 -3666 0
-1870 -3110 -3664 0
-2560 -3218 -3662 0
3216 -3667 0
1870 -3665 0
2560 -3663 0
3666 3667 0
3664 3665 0
3662 3663 0
3224 -3667 0
3110 -3665 0
3218 -3663 0
-3660 -3661 0
3214 -3669 0
2568 -3669 0
3660 3661 0
